maximize cost: 205 x2 + 163 x3 + 131 xb + 239 xc
 + 186 xe + 248 xf + 85 x17 + 129 x18 + 151 x1a
 + 108 x1b + 29 x24 + 29 x25 + 33 x26 + 33 x27
 + 10 x28 + 10 x29 + 85 x2a + 129 x2b + 272 x37
 + 151 x2d + 108 x2e + 39 x48 + 52 x49 + 31 x4b
 + 31 x4c + 8 x4d + 8 x4e + 50 x57 + 191 x5d
 + 191 x5e + 54 x6a + 54 x6b + 119 x77 + 119 x78
 + 209 x81
subject to
z = 0
o = 1
+1 x1 = +1
+1 x50 +1 x55 +1 x5e +1 x65 +1 x6b +1 x72 +1 x78 +1 x7f
+1 x8d = +1
+1 x1 -1 x2 -1 x3 = +0
+1 x2 -1 xb -1 xc = +0
+1 xb -1 xe -1 xf = +0
-1 x17 -1 x18 +1 xf = +0
+1 x17 -1 x1a -1 x1b = +0
+1 x18 -1 x21 +1 x2b = +0
+1 x1b -1 x22 +1 x2e = +0
+1 x1a -1 x23 +1 x2d = +0
+1 x21 -1 x24 -1 x25 = +0
+1 x22 -1 x26 -1 x27 = +0
+1 x23 -1 x28 -1 x29 = +0
+1 x24 +1 x26 +1 x28 -1 x2a -1 x2b = +0
+1 x25 +1 x27 +1 x29 -1 x37 +0 x38 = +0
+1 x2a -1 x2d -1 x2e = +0
+1 x37 -1 x46 +1 xc +1 xe = +0
+1 x46 -1 x48 -1 x49 = +0
+1 x48 -1 x4b -1 x4c = +0
+1 x49 -1 x4d -1 x4e = +0
+1 x4b +1 x4d -1 x4f = +0
+1 x4c +1 x4e -1 x50 = +0
+1 x4f -1 x55 -1 x57 = +0
+1 x57 -1 x5d -1 x5e = +0
+1 x5d -1 x65 -1 x67 = +0
+1 x67 -1 x6a -1 x6b = +0
+1 x6a -1 x72 -1 x74 = +0
+1 x74 -1 x77 -1 x78 = +0
+1 x77 -1 x7f -1 x81 = +0
+1 x3 +1 x81 -1 x8d = +0
+1 x37 -1 xf = +0
-1 x5d -1 x5e +1 x67 <= +0
-1 x6a -1 x6b +1 x74 <= +0
-1 x77 -1 x78 +1 x81 <= +0
+1 x37 -1 xf = +0
-1 x2 +1 x46 = +0
-1 x4f -1 x50 +1 x57 <= +0
-1 x57 +1 x81 <= +0
-1 x2 +1 x81 <= +0
-1 x18 -1 x1a -1 x1b +1 x37 = +0
-1 x2b -1 x2d -1 x2e +1 x38 = +0
+1 x18 +1 x1a +1 x1b +1 x2b +1 x2d +1 x2e -4 xf <= +0
-3 x18 -3 x1a -3 x1b +1 x2b +1 x2d +1 x2e <= +0
+1 x2b +1 x2d +1 x2e -3 xf <= +0
general
z
o
x1
x2
x3
xb
xc
xe
xf
x17
x18
x1a
x1b
x21
x22
x23
x24
x25
x26
x27
x28
x29
x2a
x2b
x37
x38
x2d
x2e
x46
x48
x49
x4b
x4c
x4d
x4e
x4f
x50
x57
x55
x5d
x5e
x67
x65
x6a
x6b
x74
x72
x77
x78
x81
x7f
x8d
end
